1345
500000
331452
331452
331452
331452
331452
331452
331452
331452
331452
331452
331452
324308
324308
324308
324308
324308
324308
323403
323403
323403
323403
323403
323403
323403
323403
323403
323403
323403
323403
323403
323403
323403
323403
323403
322943
322943
322943
322943
322943
322943
322943
322079
322079
322079
322079
322079
322079
322079
322079
322079
322079
322079
322079
322079
322079
322079
322079
322079
322079
322079
322079
313265
313265
311933
311933
309514
309514
309514
309514
309514
309514
309514
309514
309514
309514
309514
309514
309514
309514
309514
309514
309514
309514
309514
309514
306212
306212
305605
305605
305605
305605
305605
305605
305605
305605
305605
305605
305605
302809
302809
302809
302809
302809
302809
302809
302809
302809
302809
302809
302809
302809
302809
302809
302809
302809
302809
300432
300432
300432
300432
300432
300432
300432
300432
300432
300432
300432
299905
299905
299905
299905
299905
299905
299905
299905
299905
299905
299905
299905
299905
299905
299905
299824
299824
299824
299824
299824
299824
299824
297398
297398
297398
297398
297398
297398
297398
297398
297398
297398
297398
297398
297398
297398
297398
297398
297398
297398
297398
296319
296319
296319
296319
296319
296319
296319
296319
296319
296319
296319
296319
296319
296319
293111
293111
293111
293111
293111
293111
293111
293111
293111
293111
293111
293111
293111
291016
291016
291016
291016
291016
291016
291016
291016
291016
291016
291016
285829
285829
285829
285829
285829
285829
285829
285829
283943
283943
283943
283943
283943
283943
283943
283943
283943
283943
283943
283943
283943
283103
283103
283103
283103
283103
283103
283103
283103
283103
283103
283103
283103
283103
283103
283103
278314
278314
278314
278314
278314
278314
278314
278314
278314
278314
278314
278314
278314
278314
278314
278314
278314
278285
278285
278285
278285
278285
278285
278285
278285
278285
278285
278285
278285
278285
278285
278285
278285
278285
278285
276624
276624
276624
276624
276624
276624
276624
276624
276624
274731
274731
274731
274731
274731
274731
272697
272697
272697
272697
272697
272697
272697
272697
272697
272697
272697
272697
272697
272697
272697
272697
272697
272697
272697
272697
272647
272647
272647
272647
272647
272647
272647
272647
272647
272647
269955
269955
269955
269955
269955
269955
269955
269955
268916
268916
268916
268916
268916
268916
268916
268916
268916
268916
268916
268916
268916
266473
266473
266473
266473
266473
262946
262946
262946
262946
262946
262946
262946
262946
262946
262946
262946
262946
262946
262946
262946
262946
262946
262946
262946
260068
260068
260068
260068
260068
260068
260068
260068
260068
260068
260068
260068
260068
260068
260068
260068
260068
259834
259834
259834
259834
259834
259834
259834
259834
259834
259834
259834
259834
259834
259834
259834
259834
259834
259834
252582
252582
252582
252582
252582
252582
252582
252582
252582
252582
252582
252582
252582
251622
251622
251622
251622
251622
251622
246549
246549
245466
245466
245466
245466
245466
244265
244265
241317
241317
241317
240915
240915
240915
240915
240915
240915
211811
211811
211811
211811
211811
211811
211811
211811
211811
211811
211811
211811
211811
211811
211811
208541
208541
208541
208541
208541
208541
208541
208541
208541
208541
208541
208541
202687
202687
202687
202687
202687
202687
202687
201337
201337
201337
201337
201337
201337
201337
201337
201337
201337
199126
199126
199126
199126
199126
199126
199126
199126
199126
199126
199126
199126
199126
199126
199126
199126
197195
193888
193888
193888
193888
193888
193888
193888
193888
193888
193888
193888
193888
193888
193888
193888
193888
193888
191729
191729
191729
191729
191729
191729
191729
191729
191729
191729
191729
191729
191729
190986
190986
190986
190986
190986
190986
190986
190986
190986
190986
190986
190986
190986
190986
190559
190559
190559
190559
190559
190559
190559
190559
190559
190559
190559
190559
190559
190559
190559
190559
190559
190559
190559
188787
188787
188787
188787
184015
184015
184015
184015
184015
184015
184015
181787
181787
181787
181787
181787
181787
181787
179672
179672
179672
179011
179011
179011
179011
179011
176854
176854
176854
176854
176854
176854
176854
176739
176739
176739
176739
176739
176739
176739
176739
176739
176739
176739
176739
176739
176739
175902
175902
175902
175902
175902
175902
175902
175902
175902
175120
175120
175120
175120
175120
175120
175120
175120
175120
175120
175120
175120
175120
175120
175120
175120
175120
175120
175120
172016
172016
172016
172016
172016
172016
172016
172016
172016
172016
172016
172016
172016
172016
172016
172016
172016
172016
172016
172016
171998
171998
171998
171998
171998
171998
171998
171998
171998
171998
171998
171998
171998
171998
171998
171998
171998
171998
170735
170735
170735
170735
170735
170735
170735
170735
170735
170735
170735
170735
170735
170735
170735
170735
170735
170735
170735
170735
168977
168977
168977
168977
168977
168977
168977
168977
168483
168483
167763
167763
167763
167763
167763
167763
167763
167763
167763
167763
167763
167763
167763
160881
160881
160881
160881
160881
160881
160881
160881
160881
160881
160881
160881
160881
160881
160881
160881
160881
160881
160881
158946
158946
158946
158946
158946
158946
158946
158946
158946
158946
147827
147827
147827
147827
147827
147827
147827
147827
147827
147827
147827
147827
147827
147827
147827
147827
147827
147827
147827
147706
147706
147706
147706
147706
147706
147174
147174
147174
147174
147174
147174
146154
146154
146154
144212
144212
144212
144212
144212
133990
133990
133990
133990
133990
133990
133990
133990
133990
133990
132828
132828
132828
132828
132828
132828
132828
132828
132828
132828
132828
132828
132828
132828
132828
132828
132828
132828
132828
132828
131917
131301
131301
115168
115168
115168
115168
115168
115168
115168
115168
115168
115168
112277
112277
112277
112277
112277
112277
112277
112277
112277
112277
112277
111414
111414
111414
111414
111414
111414
111414
106216
106216
106216
106216
106216
106216
106216
106216
103353
103353
103353
103353
103353
103353
103353
103353
103353
103353
103353
103353
103353
103353
103353
103353
103353
103353
103353
103353
102969
102969
88734
88734
88734
87703
87703
87703
87703
87703
87703
87703
87703
87703
87703
87703
87703
87703
84627
84627
84627
84627
84627
84627
84627
84627
84627
84085
84085
84085
84085
84085
84085
84085
84085
84085
84085
84085
84085
84085
84085
84085
79211
79211
79211
79211
79211
79211
79211
79211
79211
79211
79211
79211
79211
79211
79211
79211
69878
69878
69878
69878
69878
69878
69655
69655
69655
69655
69655
69655
69655
69655
69655
69655
69655
69655
69655
69655
69655
69655
69655
69655
67561
67561
67561
67561
67561
67561
67561
67561
67561
67561
67561
67561
67561
67561
67561
67561
67561
64505
64505
64505
64505
64505
64505
64505
64505
64505
64505
64505
64505
64505
64505
64505
64505
64505
64505
64505
64109
64109
64109
64109
64109
64109
64109
64109
64109
64109
64109
64109
64109
64109
64109
64109
64109
64109
62332
62332
62332
62332
62332
62332
62332
62332
62332
60835
60835
60835
60835
60835
60835
60835
60835
60835
60835
60835
60835
60835
60835
60835
60835
60835
60835
60835
60379
60379
60379
60379
60379
60379
60379
60379
60379
60379
60379
60379
60379
60379
60379
60379
60379
59319
59319
59319
59319
59319
59319
59319
59319
59319
59319
59319
59319
59319
59319
59319
59319
59319
54613
54613
54613
54613
54613
54613
54613
54613
53175
53175
53175
53175
53175
53175
53175
53175
53175
53175
53175
52827
52827
52827
52827
52827
52827
52827
52827
50800
46581
46581
46581
46581
46581
44800
44800
44800
44800
44800
44800
44800
44800
44800
44800
44800
44800
43794
43794
43794
43794
43794
42186
42186
42186
42186
42186
42186
42186
42186
42186
42186
42186
42186
42186
40442
40442
40442
40442
40442
40442
40442
40442
40442
40442
40442
40442
40442
40442
40442
40442
40442
40442
40442
39403
39403
39403
39403
39403
39403
39403
39403
39403
39403
39403
39403
39403
39403
39403
39403
39403
39403
39403
39403
37752
37752
37752
37752
37752
37752
37752
37752
37752
37752
37752
37752
37752
37752
37752
37752
37752
36663
36663
36663
36663
36663
35447
35447
35447
29964
29964
29964
29964
29964
29964
29964
29964
29964
29964
29964
29964
25261
25261
25261
25261
25261
25261
24213
24213
24080
24080
24080
24080
24080
24080
24080
24080
24080
23540
23540
23540
23540
23540
23540
23401
23401
23401
23401
23401
23401
23401
23401
23401
23401
23401
23401
23401
23401
23401
23401
23044
23044
23044
23044
23044
23044
23044
23044
23044
23044
23044
23044
23044
23044
23044
23044
23044
23044
23044
23044
22940
22940
19571
19571
17647
17647
17647
17647
17647
17647
17647
17647
17647
17647
17558
17558
17558
17558
17558
17558
17558
17558
17558
17558
13238
13238
13238
13238
13238
13238
13238
13238
13238
13238
13238
13238
13238
13238
13238
13238
13238
13238
11577
11577
11577
11577
11577
11577
11577
11577
11577
11577
11577
11577
11577
11577
11577
11548
11548
11548
11548
4596
4596
3377
3377
3377
3377
3377
3377
3377
3377
3377
3377
